p wcnf 547 1348
w -2 2.712781 0
w 2 0.368625 0
w -3 2.623867 0
w 3 0.381117 0
w -4 0.579241 0
w 4 1.726398 0
w -5 2.655315 0
w 5 0.376603 0
w -7 1.918859 0
w 7 0.521143 0
w -8 2.630094 0
w 8 0.380215 0
w -9 0.587221 0
w 9 1.702936 0
w -10 2.080402 0
w 10 0.480676 0
w -12 0.434360 0
w 12 2.302240 0
w -13 2.465972 0
w 13 0.405520 0
w -14 1.986923 0
w 14 0.503291 0
w -15 1.616853 0
w 15 0.618485 0
w -17 0.753024 0
w 17 1.327978 0
w -18 0.709869 0
w 18 1.408710 0
w -19 2.577626 0
w 19 0.387954 0
w -20 0.537078 0
w 20 1.861927 0
w -22 0.610223 0
w 22 1.638745 0
w -23 2.281227 0
w 23 0.438361 0
w -24 1.678310 0
w 24 0.595837 0
w -25 1.331947 0
w 25 0.750781 0
w -26 0.657316 0
w 26 1.521338 0
w -27 1.529412 0
w 27 0.653846 0
w -28 0.469107 0
w 28 2.131708 0
w -30 0.559475 0
w 30 1.787390 0
w -31 1.383350 0
w 31 0.722883 0
w -33 1.391599 0
w 33 0.718598 0
w -34 0.479652 0
w 34 2.084844 0
w -36 0.421298 0
w 36 2.373616 0
w -37 2.677097 0
w 37 0.373539 0
w -39 0.474120 0
w 39 2.109170 0
w -40 1.222991 0
w 40 0.817668 0
w -42 0.612545 0
w 42 1.632534 0
w -43 0.418398 0
w 43 2.390070 0
w -44 0.961981 0
w 44 1.039521 0
w -46 0.480451 0
w 46 2.081376 0
w -47 0.702981 0
w 47 1.422514 0
w -48 1.570534 0
w 48 0.636726 0
w -49 2.499721 0
w 49 0.400045 0
w -51 0.462632 0
w 51 2.161545 0
w -52 0.906258 0
w 52 1.103439 0
w -53 0.380280 0
w 53 2.629641 0
w -54 0.427517 0
w 54 2.339086 0
w -56 2.214085 0
w 56 0.451654 0
w -57 1.954665 0
w 57 0.511597 0
w -58 0.742959 0
w 58 1.345970 0
w -59 0.736318 0
w 59 1.358110 0
w -61 0.462976 0
w 61 2.159938 0
w -62 0.425350 0
w 62 2.351007 0
w -63 1.785452 0
w 63 0.560082 0
w -64 1.156257 0
w 64 0.864860 0
w -65 0.853705 0
w 65 1.171365 0
w -67 0.646723 0
w 67 1.546256 0
w -68 0.437570 0
w 68 2.285346 0
w -71 0.819093 0
w 71 1.220863 0
w -72 1.640879 0
w 72 0.609429 0
w -73 0.568587 0
w 73 1.758746 0
w -74 1.625038 0
w 74 0.615370 0
w -75 0.650437 0
w 75 1.537428 0
w -77 0.796991 0
w 77 1.254719 0
w -78 1.628201 0
w 78 0.614175 0
w -79 0.918345 0
w 79 1.088915 0
w -80 0.905071 0
w 80 1.104885 0
w -82 0.380314 0
w 82 2.629408 0
w -83 0.949487 0
w 83 1.053200 0
w -84 0.739069 0
w 84 1.353053 0
w -86 0.662183 0
w 86 1.510156 0
w -88 0.864895 0
w 88 1.156209 0
w -89 1.172506 0
w 89 0.852874 0
w -90 1.073262 0
w 90 0.931739 0
w -91 0.773112 0
w 91 1.293473 0
w -93 0.534788 0
w 93 1.869899 0
w -94 0.491502 0
w 94 2.034580 0
w -95 0.775154 0
w 95 1.290066 0
w -96 1.760880 0
w 96 0.567898 0
w -98 0.576664 0
w 98 1.734112 0
w -99 2.474281 0
w 99 0.404158 0
w -100 2.271941 0
w 100 0.440152 0
w -102 1.468949 0
w 102 0.680759 0
w -103 2.018567 0
w 103 0.495401 0
w -105 2.527356 0
w 105 0.395670 0
w -106 2.134775 0
w 106 0.468433 0
w -108 0.403665 0
w 108 2.477300 0
w -109 0.888027 0
w 109 1.126092 0
w -110 1.389227 0
w 110 0.719825 0
w -111 2.580779 0
w 111 0.387480 0
w -113 1.541230 0
w 113 0.648833 0
w -114 2.549996 0
w 114 0.392158 0
w -115 1.949177 0
w 115 0.513037 0
w -116 1.111621 0
w 116 0.899588 0
w -117 1.592442 0
w 117 0.627966 0
w -118 0.470187 0
w 118 2.126813 0
w -120 0.597626 0
w 120 1.673288 0
w -122 1.086195 0
w 122 0.920645 0
w -124 1.272090 0
w 124 0.786108 0
w -126 0.727658 0
w 126 1.374272 0
w -127 1.240227 0
w 127 0.806304 0
w -128 0.567032 0
w 128 1.763569 0
w -129 0.426929 0
w 129 2.342309 0
w -130 1.549317 0
w 130 0.645446 0
w -132 1.029655 0
w 132 0.971199 0
w -133 0.813884 0
w 133 1.228677 0
w -135 2.614259 0
w 135 0.382518 0
w -136 0.616017 0
w 136 1.623333 0
w -137 0.732835 0
w 137 1.364564 0
w -138 0.683396 0
w 138 1.463280 0
w -140 0.991841 0
w 140 1.008226 0
w -141 1.166805 0
w 141 0.857041 0
w -142 2.661618 0
w 142 0.375711 0
w -143 0.523787 0
w 143 1.909173 0
w -145 1.523802 0
w 145 0.656253 0
w -147 1.849025 0
w 147 0.540826 0
w -148 0.456544 0
w 148 2.190371 0
w -150 1.493655 0
w 150 0.669499 0
w -151 2.367081 0
w 151 0.422461 0
w -153 1.309200 0
w 153 0.763825 0
w -154 1.459278 0
w 154 0.685271 0
w -155 0.953316 0
w 155 1.048970 0
w -156 1.571734 0
w 156 0.636240 0
w -158 1.444453 0
w 158 0.692304 0
w -159 1.326723 0
w 159 0.753737 0
w -161 2.340507 0
w 161 0.427258 0
w -162 2.685720 0
w 162 0.372340 0
w -163 1.243472 0
w 163 0.804200 0
w -165 0.437645 0
w 165 2.284958 0
w -166 1.163180 0
w 166 0.859712 0
w -167 0.851283 0
w 167 1.174697 0
w -168 0.570891 0
w 168 1.751646 0
w -170 0.832524 0
w 170 1.201167 0
w -171 2.619267 0
w 171 0.381786 0
w -172 2.331645 0
w 172 0.428882 0
w -174 0.428263 0
w 174 2.335014 0
w -175 0.519660 0
w 175 1.924336 0
w -176 0.459970 0
w 176 2.174057 0
w -177 1.161402 0
w 177 0.861029 0
w -179 0.452238 0
w 179 2.211223 0
w -180 2.594676 0
w 180 0.385405 0
w -181 0.764118 0
w 181 1.308699 0
w -182 1.479588 0
w 182 0.675864 0
w -184 1.004177 0
w 184 0.995840 0
w -186 0.519223 0
w 186 1.925955 0
w -187 1.966889 0
w 187 0.508417 0
w -189 0.536361 0
w 189 1.864416 0
w -190 1.239601 0
w 190 0.806711 0
w -191 0.505499 0
w 191 1.978242 0
w -193 1.477041 0
w 193 0.677029 0
w -194 1.399444 0
w 194 0.714570 0
w -196 0.650007 0
w 196 1.538445 0
w -198 2.426161 0
w 198 0.412174 0
w -199 0.756218 0
w 199 1.322369 0
w -202 1.394908 0
w 202 0.716893 0
w -203 1.064993 0
w 203 0.938973 0
w -205 0.857664 0
w 205 1.165957 0
w -206 0.459517 0
w 206 2.176198 0
w -208 2.287146 0
w 208 0.437226 0
w -209 1.131599 0
w 209 0.883705 0
w -210 0.749824 0
w 210 1.333646 0
w -211 0.505182 0
w 211 1.979484 0
w -213 0.392961 0
w 213 2.544780 0
w -214 0.774666 0
w 214 1.290879 0
w -215 1.614787 0
w 215 0.619277 0
w -217 0.802969 0
w 217 1.245378 0
w -218 1.615386 0
w 218 0.619047 0
w -219 0.471974 0
w 219 2.118761 0
w -220 1.755116 0
w 220 0.569763 0
w -222 0.951499 0
w 222 1.050974 0
w -223 2.323856 0
w 223 0.430319 0
w -226 1.380761 0
w 226 0.724238 0
w -227 0.622583 0
w 227 1.606212 0
w -228 1.037822 0
w 228 0.963557 0
w -230 2.154994 0
w 230 0.464038 0
w -231 2.191077 0
w 231 0.456397 0
w -232 0.683675 0
w 232 1.462683 0
w -235 0.909469 0
w 235 1.099543 0
w -237 1.680237 0
w 237 0.595154 0
w -238 0.940434 0
w 238 1.063339 0
w -240 1.519679 0
w 240 0.658034 0
w -241 0.553893 0
w 241 1.805404 0
w -242 1.236731 0
w 242 0.808583 0
w -244 0.543841 0
w 244 1.838773 0
w -245 1.331099 0
w 245 0.751259 0
w -246 2.638727 0
w 246 0.378971 0
w -248 2.558056 0
w 248 0.390922 0
w -249 0.402433 0
w 249 2.484885 0
w -250 0.394959 0
w 250 2.531909 0
w -251 0.473662 0
w 251 2.111211 0
w -253 1.571638 0
w 253 0.636279 0
w -254 1.299464 0
w 254 0.769548 0
w -255 0.464199 0
w 255 2.154247 0
w -258 1.391703 0
w 258 0.718544 0
w -260 2.026949 0
w 260 0.493352 0
w -261 0.442358 0
w 261 2.260612 0
w -263 1.168102 0
w 263 0.856089 0
w -265 0.782036 0
w 265 1.278714 0
w -266 0.496929 0
w 266 2.012359 0
w -268 0.498395 0
w 268 2.006441 0
w -269 1.419382 0
w 269 0.704532 0
w -270 0.494778 0
w 270 2.021106 0
w -273 1.410818 0
w 273 0.708808 0
w -274 0.834671 0
w 274 1.198077 0
w -275 0.665084 0
w 275 1.503570 0
w -276 1.798088 0
w 276 0.556146 0
w -277 0.761776 0
w 277 1.312723 0
w -278 0.853631 0
w 278 1.171466 0
w -280 2.165290 0
w 280 0.461832 0
w -282 1.222529 0
w 282 0.817977 0
w -283 2.333182 0
w 283 0.428599 0
w -285 1.942847 0
w 285 0.514708 0
w -287 0.958006 0
w 287 1.043835 0
w -289 0.524731 0
w 289 1.905739 0
w -290 0.462436 0
w 290 2.162463 0
w -292 0.623846 0
w 292 1.602959 0
w -293 0.574742 0
w 293 1.739911 0
w -294 0.830159 0
w 294 1.204589 0
w -297 0.776085 0
w 297 1.288519 0
w -298 0.862575 0
w 298 1.159320 0
w -300 1.700473 0
w 300 0.588072 0
w -302 2.302954 0
w 302 0.434225 0
w -303 1.606718 0
w 303 0.622387 0
w -305 0.779437 0
w 305 1.282978 0
w -307 1.699600 0
w 307 0.588374 0
w -309 0.988622 0
w 309 1.011509 0
w -310 0.427150 0
w 310 2.341099 0
w -311 2.069268 0
w 311 0.483263 0
w -313 0.379495 0
w 313 2.635078 0
w -314 0.533409 0
w 314 1.874734 0
w -317 0.417992 0
w 317 2.392390 0
w -318 1.349267 0
w 318 0.741143 0
w -320 2.310886 0
w 320 0.432734 0
w -322 0.666788 0
w 322 1.499726 0
w -323 1.899389 0
w 323 0.526485 0
w -324 2.643979 0
w 324 0.378218 0
w -326 0.711904 0
w 326 1.404684 0
w -327 0.902780 0
w 327 1.107690 0
w -328 1.109975 0
w 328 0.900921 0
w -329 0.498074 0
w 329 2.007732 0
w -331 2.411381 0
w 331 0.414700 0
w -332 1.225589 0
w 332 0.815934 0
w -333 1.925011 0
w 333 0.519478 0
w -335 1.826017 0
w 335 0.547640 0
w -336 2.068997 0
w 336 0.483326 0
w -339 0.810104 0
w 339 1.234410 0
w -341 2.255910 0
w 341 0.443280 0
w -342 0.954209 0
w 342 1.047989 0
w -344 0.895879 0
w 344 1.116222 0
w -345 0.441457 0
w 345 2.265227 0
w -346 0.681789 0
w 346 1.466729 0
w -347 1.009566 0
w 347 0.990524 0
w -351 1.163702 0
w 351 0.859326 0
w -353 2.605378 0
w 353 0.383821 0
w -354 2.699296 0
w 354 0.370467 0
w -356 0.751826 0
w 356 1.330094 0
w -357 0.654449 0
w 357 1.528004 0
w -359 1.125858 0
w 359 0.888211 0
w -361 0.680433 0
w 361 1.469653 0
w -362 2.263553 0
w 362 0.441783 0
w -363 0.635883 0
w 363 1.572617 0
w -365 1.122716 0
w 365 0.890697 0
w -366 0.873483 0
w 366 1.144842 0
w -367 1.259558 0
w 367 0.793929 0
w -369 0.382504 0
w 369 2.614350 0
w -370 1.432953 0
w 370 0.697859 0
w -372 0.928813 0
w 372 1.076644 0
w -374 0.368776 0
w 374 2.711677 0
w -376 2.403308 0
w 376 0.416093 0
w -377 2.517427 0
w 377 0.397231 0
w -379 0.488501 0
w 379 2.047080 0
w -381 1.422094 0
w 381 0.703188 0
w -382 1.239399 0
w 382 0.806842 0
w -383 0.884998 0
w 383 1.129946 0
w -385 2.181474 0
w 385 0.458406 0
w -386 1.133988 0
w 386 0.881843 0
w -387 0.460076 0
w 387 2.173556 0
w -389 1.519479 0
w 389 0.658120 0
w -391 0.401163 0
w 391 2.492752 0
w -395 0.722961 0
w 395 1.383200 0
w -396 0.722495 0
w 396 1.384092 0
w -397 2.249840 0
w 397 0.444476 0
w -398 0.437946 0
w 398 2.283387 0
w -399 0.862714 0
w 399 1.159133 0
w -402 1.277032 0
w 402 0.783066 0
w -404 0.827772 0
w 404 1.208063 0
w -405 2.648407 0
w 405 0.377585 0
w -406 0.628347 0
w 406 1.591478 0
w -409 1.065893 0
w 409 0.938180 0
w -410 2.478384 0
w 410 0.403489 0
w -411 2.444857 0
w 411 0.409022 0
w -413 2.533761 0
w 413 0.394670 0
w -416 2.342104 0
w 416 0.426966 0
w -417 0.525565 0
w 417 1.902715 0
w -418 1.096921 0
w 418 0.911643 0
w -420 0.595555 0
w 420 1.679105 0
w -421 1.698216 0
w 421 0.588853 0
w -422 0.780774 0
w 422 1.280780 0
w -425 1.489754 0
w 425 0.671252 0
w -427 0.448077 0
w 427 2.231759 0
w -430 0.486676 0
w 430 2.054754 0
w -432 1.860403 0
w 432 0.537518 0
w -434 2.238753 0
w 434 0.446677 0
w -437 1.191689 0
w 437 0.839145 0
w -441 0.770533 0
w 441 1.297802 0
w -443 1.811770 0
w 443 0.551946 0
w -449 0.595914 0
w 449 1.678096 0
w -450 1.249784 0
w 450 0.800138 0
w -452 1.342218 0
w 452 0.745035 0
w -453 0.424004 0
w 453 2.358466 0
w -454 2.029841 0
w 454 0.492649 0
w -457 1.845255 0
w 457 0.541930 0
w -458 1.613948 0
w 458 0.619599 0
w -459 0.379291 0
w 459 2.636500 0
w -461 0.518278 0
w 461 1.929467 0
w -464 1.859848 0
w 464 0.537678 0
w -465 1.604571 0
w 465 0.623220 0
w -466 1.460908 0
w 466 0.684506 0
w -468 0.512007 0
w 468 1.953098 0
w -469 1.735278 0
w 469 0.576276 0
w -472 2.158681 0
w 472 0.463246 0
w -474 0.640702 0
w 474 1.560789 0
w -476 2.079185 0
w 476 0.480958 0
w -478 1.781467 0
w 478 0.561335 0
w -481 1.161577 0
w 481 0.860899 0
w -482 0.537491 0
w 482 1.860496 0
w -483 0.654403 0
w 483 1.528111 0
w -485 2.686783 0
w 485 0.372192 0
w -489 1.314644 0
w 489 0.760662 0
w -492 2.293988 0
w 492 0.435922 0
w -495 0.411034 0
w 495 2.432890 0
w -498 1.905953 0
w 498 0.524672 0
w -500 1.045939 0
w 500 0.956078 0
w -504 1.176382 0
w 504 0.850064 0
w -508 0.732879 0
w 508 1.364482 0
w -509 1.130180 0
w 509 0.884815 0
w -511 0.401791 0
w 511 2.488858 0
w -518 2.515802 0
w 518 0.397488 0
w -520 1.018174 0
w 520 0.982150 0
w -523 1.907937 0
w 523 0.524126 0
w -526 1.033364 0
w 526 0.967714 0
w -529 1.199927 0
w 529 0.833384 0
2 1 134 0
2 -1 -134 0
-2 1 -134 0
-2 -1 134 0
3 1 388 0
3 -1 -388 0
-3 1 -388 0
-3 -1 388 0
4 1 438 0
4 -1 -438 0
-4 1 -438 0
-4 -1 438 0
5 1 506 0
5 -1 -506 0
-5 1 -506 0
-5 -1 506 0
7 6 178 0
7 -6 -178 0
-7 6 -178 0
-7 -6 178 0
8 6 185 0
8 -6 -185 0
-8 6 -185 0
-8 -6 185 0
9 6 490 0
9 -6 -490 0
-9 6 -490 0
-9 -6 490 0
10 6 535 0
10 -6 -535 0
-10 6 -535 0
-10 -6 535 0
12 11 45 0
12 -11 -45 0
-12 11 -45 0
-12 -11 45 0
13 11 188 0
13 -11 -188 0
-13 11 -188 0
-13 -11 188 0
14 11 510 0
14 -11 -510 0
-14 11 -510 0
-14 -11 510 0
15 11 534 0
15 -11 -534 0
-15 11 -534 0
-15 -11 534 0
17 16 281 0
17 -16 -281 0
-17 16 -281 0
-17 -16 281 0
18 16 301 0
18 -16 -301 0
-18 16 -301 0
-18 -16 301 0
19 16 358 0
19 -16 -358 0
-19 16 -358 0
-19 -16 358 0
20 16 531 0
20 -16 -531 0
-20 16 -531 0
-20 -16 531 0
22 21 87 0
22 -21 -87 0
-22 21 -87 0
-22 -21 87 0
23 21 229 0
23 -21 -229 0
-23 21 -229 0
-23 -21 229 0
24 21 243 0
24 -21 -243 0
-24 21 -243 0
-24 -21 243 0
25 21 337 0
25 -21 -337 0
-25 21 -337 0
-25 -21 337 0
26 21 364 0
26 -21 -364 0
-26 21 -364 0
-26 -21 364 0
27 21 436 0
27 -21 -436 0
-27 21 -436 0
-27 -21 436 0
28 21 527 0
28 -21 -527 0
-28 21 -527 0
-28 -21 527 0
30 29 195 0
30 -29 -195 0
-30 29 -195 0
-30 -29 195 0
31 29 225 0
31 -29 -225 0
-31 29 -225 0
-31 -29 225 0
33 32 234 0
33 -32 -234 0
-33 32 -234 0
-33 -32 234 0
34 32 513 0
34 -32 -513 0
-34 32 -513 0
-34 -32 513 0
36 35 503 0
36 -35 -503 0
-36 35 -503 0
-36 -35 503 0
37 35 507 0
37 -35 -507 0
-37 35 -507 0
-37 -35 507 0
39 38 112 0
39 -38 -112 0
-39 38 -112 0
-39 -38 112 0
40 38 435 0
40 -38 -435 0
-40 38 -435 0
-40 -38 435 0
42 41 477 0
42 -41 -477 0
-42 41 -477 0
-42 -41 477 0
43 41 540 0
43 -41 -540 0
-43 41 -540 0
-43 -41 540 0
44 41 547 0
44 -41 -547 0
-44 41 -547 0
-44 -41 547 0
46 45 160 0
46 -45 -160 0
-46 45 -160 0
-46 -45 160 0
47 45 239 0
47 -45 -239 0
-47 45 -239 0
-47 -45 239 0
48 45 295 0
48 -45 -295 0
-48 45 -295 0
-48 -45 295 0
49 45 299 0
49 -45 -299 0
-49 45 -299 0
-49 -45 299 0
51 50 169 0
51 -50 -169 0
-51 50 -169 0
-51 -50 169 0
52 50 315 0
52 -50 -315 0
-52 50 -315 0
-52 -50 315 0
53 50 408 0
53 -50 -408 0
-53 50 -408 0
-53 -50 408 0
54 50 532 0
54 -50 -532 0
-54 50 -532 0
-54 -50 532 0
56 55 101 0
56 -55 -101 0
-56 55 -101 0
-56 -55 101 0
57 55 192 0
57 -55 -192 0
-57 55 -192 0
-57 -55 192 0
58 55 212 0
58 -55 -212 0
-58 55 -212 0
-58 -55 212 0
59 55 528 0
59 -55 -528 0
-59 55 -528 0
-59 -55 528 0
61 60 149 0
61 -60 -149 0
-61 60 -149 0
-61 -60 149 0
62 60 435 0
62 -60 -435 0
-62 60 -435 0
-62 -60 435 0
63 60 438 0
63 -60 -438 0
-63 60 -438 0
-63 -60 438 0
64 60 505 0
64 -60 -505 0
-64 60 -505 0
-64 -60 505 0
65 60 536 0
65 -60 -536 0
-65 60 -536 0
-65 -60 536 0
67 66 134 0
67 -66 -134 0
-67 66 -134 0
-67 -66 134 0
68 66 539 0
68 -66 -539 0
-68 66 -539 0
-68 -66 539 0
71 70 192 0
71 -70 -192 0
-71 70 -192 0
-71 -70 192 0
72 70 243 0
72 -70 -243 0
-72 70 -243 0
-72 -70 243 0
73 70 408 0
73 -70 -408 0
-73 70 -408 0
-73 -70 408 0
74 70 433 0
74 -70 -433 0
-74 70 -433 0
-74 -70 433 0
75 70 439 0
75 -70 -439 0
-75 70 -439 0
-75 -70 439 0
77 76 173 0
77 -76 -173 0
-77 76 -173 0
-77 -76 173 0
78 76 262 0
78 -76 -262 0
-78 76 -262 0
-78 -76 262 0
79 76 408 0
79 -76 -408 0
-79 76 -408 0
-79 -76 408 0
80 76 447 0
80 -76 -447 0
-80 76 -447 0
-80 -76 447 0
82 81 291 0
82 -81 -291 0
-82 81 -291 0
-82 -81 291 0
83 81 380 0
83 -81 -380 0
-83 81 -380 0
-83 -81 380 0
84 81 531 0
84 -81 -531 0
-84 81 -531 0
-84 -81 531 0
86 85 547 0
86 -85 -547 0
-86 85 -547 0
-86 -85 547 0
88 87 299 0
88 -87 -299 0
-88 87 -299 0
-88 -87 299 0
89 87 358 0
89 -87 -358 0
-89 87 -358 0
-89 -87 358 0
90 87 412 0
90 -87 -412 0
-90 87 -412 0
-90 -87 412 0
91 87 543 0
91 -87 -543 0
-91 87 -543 0
-91 -87 543 0
93 92 152 0
93 -92 -152 0
-93 92 -152 0
-93 -92 152 0
94 92 358 0
94 -92 -358 0
-94 92 -358 0
-94 -92 358 0
95 92 378 0
95 -92 -378 0
-95 92 -378 0
-95 -92 378 0
96 92 513 0
96 -92 -513 0
-96 92 -513 0
-96 -92 513 0
98 97 216 0
98 -97 -216 0
-98 97 -216 0
-98 -97 216 0
99 97 306 0
99 -97 -306 0
-99 97 -306 0
-99 -97 306 0
100 97 510 0
100 -97 -510 0
-100 97 -510 0
-100 -97 510 0
102 101 264 0
102 -101 -264 0
-102 101 -264 0
-102 -101 264 0
103 101 467 0
103 -101 -467 0
-103 101 -467 0
-103 -101 467 0
105 104 340 0
105 -104 -340 0
-105 104 -340 0
-105 -104 340 0
106 104 507 0
106 -104 -507 0
-106 104 -507 0
-106 -104 507 0
108 107 272 0
108 -107 -272 0
-108 107 -272 0
-108 -107 272 0
109 107 371 0
109 -107 -371 0
-109 107 -371 0
-109 -107 371 0
110 107 444 0
110 -107 -444 0
-110 107 -444 0
-110 -107 444 0
111 107 503 0
111 -107 -503 0
-111 107 -503 0
-111 -107 503 0
113 112 149 0
113 -112 -149 0
-113 112 -149 0
-113 -112 149 0
114 112 355 0
114 -112 -355 0
-114 112 -355 0
-114 -112 355 0
115 112 360 0
115 -112 -360 0
-115 112 -360 0
-115 -112 360 0
116 112 364 0
116 -112 -364 0
-116 112 -364 0
-116 -112 364 0
117 112 428 0
117 -112 -428 0
-117 112 -428 0
-117 -112 428 0
118 112 491 0
118 -112 -491 0
-118 112 -491 0
-118 -112 491 0
120 119 484 0
120 -119 -484 0
-120 119 -484 0
-120 -119 484 0
122 121 221 0
122 -121 -221 0
-122 121 -221 0
-122 -121 221 0
124 123 460 0
124 -123 -460 0
-124 123 -460 0
-124 -123 460 0
126 125 352 0
126 -125 -352 0
-126 125 -352 0
-126 -125 352 0
127 125 470 0
127 -125 -470 0
-127 125 -470 0
-127 -125 470 0
128 125 534 0
128 -125 -534 0
-128 125 -534 0
-128 -125 534 0
129 125 539 0
129 -125 -539 0
-129 125 -539 0
-129 -125 539 0
130 125 542 0
130 -125 -542 0
-130 125 -542 0
-130 -125 542 0
132 131 315 0
132 -131 -315 0
-132 131 -315 0
-132 -131 315 0
133 131 533 0
133 -131 -533 0
-133 131 -533 0
-133 -131 533 0
135 134 146 0
135 -134 -146 0
-135 134 -146 0
-135 -134 146 0
136 134 308 0
136 -134 -308 0
-136 134 -308 0
-136 -134 308 0
137 134 487 0
137 -134 -487 0
-137 134 -487 0
-137 -134 487 0
138 134 533 0
138 -134 -533 0
-138 134 -533 0
-138 -134 533 0
140 139 256 0
140 -139 -256 0
-140 139 -256 0
-140 -139 256 0
141 139 429 0
141 -139 -429 0
-141 139 -429 0
-141 -139 429 0
142 139 513 0
142 -139 -513 0
-142 139 -513 0
-142 -139 513 0
143 139 544 0
143 -139 -544 0
-143 139 -544 0
-143 -139 544 0
145 144 239 0
145 -144 -239 0
-145 144 -239 0
-145 -144 239 0
147 146 375 0
147 -146 -375 0
-147 146 -375 0
-147 -146 375 0
148 146 501 0
148 -146 -501 0
-148 146 -501 0
-148 -146 501 0
150 149 178 0
150 -149 -178 0
-150 149 -178 0
-150 -149 178 0
151 149 516 0
151 -149 -516 0
-151 149 -516 0
-151 -149 516 0
153 152 216 0
153 -152 -216 0
-153 152 -216 0
-153 -152 216 0
154 152 271 0
154 -152 -271 0
-154 152 -271 0
-154 -152 271 0
155 152 493 0
155 -152 -493 0
-155 152 -493 0
-155 -152 493 0
156 152 515 0
156 -152 -515 0
-156 152 -515 0
-156 -152 515 0
158 157 463 0
158 -157 -463 0
-158 157 -463 0
-158 -157 463 0
159 157 490 0
159 -157 -490 0
-159 157 -490 0
-159 -157 490 0
161 160 315 0
161 -160 -315 0
-161 160 -315 0
-161 -160 315 0
162 160 475 0
162 -160 -475 0
-162 160 -475 0
-162 -160 475 0
163 160 517 0
163 -160 -517 0
-163 160 -517 0
-163 -160 517 0
165 164 350 0
165 -164 -350 0
-165 164 -350 0
-165 -164 350 0
166 164 400 0
166 -164 -400 0
-166 164 -400 0
-166 -164 400 0
167 164 510 0
167 -164 -510 0
-167 164 -510 0
-167 -164 510 0
168 164 527 0
168 -164 -527 0
-168 164 -527 0
-168 -164 527 0
170 169 350 0
170 -169 -350 0
-170 169 -350 0
-170 -169 350 0
171 169 433 0
171 -169 -433 0
-171 169 -433 0
-171 -169 433 0
172 169 496 0
172 -169 -496 0
-172 169 -496 0
-172 -169 496 0
174 173 200 0
174 -173 -200 0
-174 173 -200 0
-174 -173 200 0
175 173 212 0
175 -173 -212 0
-175 173 -212 0
-175 -173 212 0
176 173 284 0
176 -173 -284 0
-176 173 -284 0
-176 -173 284 0
177 173 360 0
177 -173 -360 0
-177 173 -360 0
-177 -173 360 0
179 178 252 0
179 -178 -252 0
-179 178 -252 0
-179 -178 252 0
180 178 319 0
180 -178 -319 0
-180 178 -319 0
-180 -178 319 0
181 178 439 0
181 -178 -439 0
-181 178 -439 0
-181 -178 439 0
182 178 537 0
182 -178 -537 0
-182 178 -537 0
-182 -178 537 0
184 183 429 0
184 -183 -429 0
-184 183 -429 0
-184 -183 429 0
186 185 225 0
186 -185 -225 0
-186 185 -225 0
-186 -185 225 0
187 185 408 0
187 -185 -408 0
-187 185 -408 0
-187 -185 408 0
189 188 378 0
189 -188 -378 0
-189 188 -378 0
-189 -188 378 0
190 188 401 0
190 -188 -401 0
-190 188 -401 0
-190 -188 401 0
191 188 543 0
191 -188 -543 0
-191 188 -543 0
-191 -188 543 0
193 192 262 0
193 -192 -262 0
-193 192 -262 0
-193 -192 262 0
194 192 505 0
194 -192 -505 0
-194 192 -505 0
-194 -192 505 0
196 195 424 0
196 -195 -424 0
-196 195 -424 0
-196 -195 424 0
198 197 355 0
198 -197 -355 0
-198 197 -355 0
-198 -197 355 0
199 197 456 0
199 -197 -456 0
-199 197 -456 0
-199 -197 456 0
202 201 463 0
202 -201 -463 0
-202 201 -463 0
-202 -201 463 0
203 201 521 0
203 -201 -521 0
-203 201 -521 0
-203 -201 521 0
205 204 286 0
205 -204 -286 0
-205 204 -286 0
-205 -204 286 0
206 204 547 0
206 -204 -547 0
-206 204 -547 0
-206 -204 547 0
208 207 392 0
208 -207 -392 0
-208 207 -392 0
-208 -207 392 0
209 207 415 0
209 -207 -415 0
-209 207 -415 0
-209 -207 415 0
210 207 510 0
210 -207 -510 0
-210 207 -510 0
-210 -207 510 0
211 207 528 0
211 -207 -528 0
-211 207 -528 0
-211 -207 528 0
213 212 360 0
213 -212 -360 0
-213 212 -360 0
-213 -212 360 0
214 212 513 0
214 -212 -513 0
-214 212 -513 0
-214 -212 513 0
215 212 517 0
215 -212 -517 0
-215 212 -517 0
-215 -212 517 0
217 216 295 0
217 -216 -295 0
-217 216 -295 0
-217 -216 295 0
218 216 440 0
218 -216 -440 0
-218 216 -440 0
-218 -216 440 0
219 216 525 0
219 -216 -525 0
-219 216 -525 0
-219 -216 525 0
220 216 536 0
220 -216 -536 0
-220 216 -536 0
-220 -216 536 0
222 221 256 0
222 -221 -256 0
-222 221 -256 0
-222 -221 256 0
223 221 375 0
223 -221 -375 0
-223 221 -375 0
-223 -221 375 0
226 225 463 0
226 -225 -463 0
-226 225 -463 0
-226 -225 463 0
227 225 512 0
227 -225 -512 0
-227 225 -512 0
-227 -225 512 0
228 225 539 0
228 -225 -539 0
-228 225 -539 0
-228 -225 539 0
230 229 319 0
230 -229 -319 0
-230 229 -319 0
-230 -229 319 0
231 229 471 0
231 -229 -471 0
-231 229 -471 0
-231 -229 471 0
232 229 506 0
232 -229 -506 0
-232 229 -506 0
-232 -229 506 0
235 234 486 0
235 -234 -486 0
-235 234 -486 0
-235 -234 486 0
237 236 243 0
237 -236 -243 0
-237 236 -243 0
-237 -236 243 0
238 236 423 0
238 -236 -423 0
-238 236 -423 0
-238 -236 423 0
240 239 296 0
240 -239 -296 0
-240 239 -296 0
-240 -239 296 0
241 239 436 0
241 -239 -436 0
-241 239 -436 0
-241 -239 436 0
242 239 445 0
242 -239 -445 0
-242 239 -445 0
-242 -239 445 0
244 243 460 0
244 -243 -460 0
-244 243 -460 0
-244 -243 460 0
245 243 480 0
245 -243 -480 0
-245 243 -480 0
-245 -243 480 0
246 243 507 0
246 -243 -507 0
-246 243 -507 0
-246 -243 507 0
248 247 301 0
248 -247 -301 0
-248 247 -301 0
-248 -247 301 0
249 247 403 0
249 -247 -403 0
-249 247 -403 0
-249 -247 403 0
250 247 414 0
250 -247 -414 0
-250 247 -414 0
-250 -247 414 0
251 247 540 0
251 -247 -540 0
-251 247 -540 0
-251 -247 540 0
253 252 271 0
253 -252 -271 0
-253 252 -271 0
-253 -252 271 0
254 252 316 0
254 -252 -316 0
-254 252 -316 0
-254 -252 316 0
255 252 517 0
255 -252 -517 0
-255 252 -517 0
-255 -252 517 0
258 257 525 0
258 -257 -525 0
-258 257 -525 0
-258 -257 525 0
260 259 448 0
260 -259 -448 0
-260 259 -448 0
-260 -259 448 0
261 259 533 0
261 -259 -533 0
-261 259 -533 0
-261 -259 533 0
263 262 456 0
263 -262 -456 0
-263 262 -456 0
-263 -262 456 0
265 264 312 0
265 -264 -312 0
-265 264 -312 0
-265 -264 312 0
266 264 506 0
266 -264 -506 0
-266 264 -506 0
-266 -264 506 0
268 267 296 0
268 -267 -296 0
-268 267 -296 0
-268 -267 296 0
269 267 325 0
269 -267 -325 0
-269 267 -325 0
-269 -267 325 0
270 267 350 0
270 -267 -350 0
-270 267 -350 0
-270 -267 350 0
273 272 321 0
273 -272 -321 0
-273 272 -321 0
-273 -272 321 0
274 272 378 0
274 -272 -378 0
-274 272 -378 0
-274 -272 378 0
275 272 501 0
275 -272 -501 0
-275 272 -501 0
-275 -272 501 0
276 272 516 0
276 -272 -516 0
-276 272 -516 0
-276 -272 516 0
277 272 524 0
277 -272 -524 0
-277 272 -524 0
-277 -272 524 0
278 272 533 0
278 -272 -533 0
-278 272 -533 0
-278 -272 533 0
280 279 330 0
280 -279 -330 0
-280 279 -330 0
-280 -279 330 0
282 281 394 0
282 -281 -394 0
-282 281 -394 0
-282 -281 394 0
283 281 547 0
283 -281 -547 0
-283 281 -547 0
-283 -281 547 0
285 284 338 0
285 -284 -338 0
-285 284 -338 0
-285 -284 338 0
287 286 524 0
287 -286 -524 0
-287 286 -524 0
-287 -286 524 0
289 288 348 0
289 -288 -348 0
-289 288 -348 0
-289 -288 348 0
290 288 462 0
290 -288 -462 0
-290 288 -462 0
-290 -288 462 0
292 291 337 0
292 -291 -337 0
-292 291 -337 0
-292 -291 337 0
293 291 414 0
293 -291 -414 0
-293 291 -414 0
-293 -291 414 0
294 291 451 0
294 -291 -451 0
-294 291 -451 0
-294 -291 451 0
297 296 438 0
297 -296 -438 0
-297 296 -438 0
-297 -296 438 0
298 296 521 0
298 -296 -521 0
-298 296 -521 0
-298 -296 521 0
300 299 439 0
300 -299 -439 0
-300 299 -439 0
-300 -299 439 0
302 301 403 0
302 -301 -403 0
-302 301 -403 0
-302 -301 403 0
303 301 440 0
303 -301 -440 0
-303 301 -440 0
-303 -301 440 0
305 304 407 0
305 -304 -407 0
-305 304 -407 0
-305 -304 407 0
307 306 517 0
307 -306 -517 0
-307 306 -517 0
-307 -306 517 0
309 308 371 0
309 -308 -371 0
-309 308 -371 0
-309 -308 371 0
310 308 384 0
310 -308 -384 0
-310 308 -384 0
-310 -308 384 0
311 308 444 0
311 -308 -444 0
-311 308 -444 0
-311 -308 444 0
313 312 368 0
313 -312 -368 0
-313 312 -368 0
-313 -312 368 0
314 312 496 0
314 -312 -496 0
-314 312 -496 0
-314 -312 496 0
317 316 519 0
317 -316 -519 0
-317 316 -519 0
-317 -316 519 0
318 316 528 0
318 -316 -528 0
-318 316 -528 0
-318 -316 528 0
320 319 407 0
320 -319 -407 0
-320 319 -407 0
-320 -319 407 0
322 321 426 0
322 -321 -426 0
-322 321 -426 0
-322 -321 426 0
323 321 519 0
323 -321 -519 0
-323 321 -519 0
-323 -321 519 0
324 321 543 0
324 -321 -543 0
-324 321 -543 0
-324 -321 543 0
326 325 388 0
326 -325 -388 0
-326 325 -388 0
-326 -325 388 0
327 325 435 0
327 -325 -435 0
-327 325 -435 0
-327 -325 435 0
328 325 502 0
328 -325 -502 0
-328 325 -502 0
-328 -325 502 0
329 325 539 0
329 -325 -539 0
-329 325 -539 0
-329 -325 539 0
331 330 364 0
331 -330 -364 0
-331 330 -364 0
-331 -330 364 0
332 330 435 0
332 -330 -435 0
-332 330 -435 0
-332 -330 435 0
333 330 516 0
333 -330 -516 0
-333 330 -516 0
-333 -330 516 0
335 334 343 0
335 -334 -343 0
-335 334 -343 0
-335 -334 343 0
336 334 530 0
336 -334 -530 0
-336 334 -530 0
-336 -334 530 0
339 338 546 0
339 -338 -546 0
-339 338 -546 0
-339 -338 546 0
341 340 497 0
341 -340 -497 0
-341 340 -497 0
-341 -340 497 0
342 340 516 0
342 -340 -516 0
-342 340 -516 0
-342 -340 516 0
344 343 368 0
344 -343 -368 0
-344 343 -368 0
-344 -343 368 0
345 343 415 0
345 -343 -415 0
-345 343 -415 0
-345 -343 415 0
346 343 428 0
346 -343 -428 0
-346 343 -428 0
-346 -343 428 0
347 343 438 0
347 -343 -438 0
-347 343 -438 0
-347 -343 438 0
351 350 493 0
351 -350 -493 0
-351 350 -493 0
-351 -350 493 0
353 352 499 0
353 -352 -499 0
-353 352 -499 0
-353 -352 499 0
354 352 535 0
354 -352 -535 0
-354 352 -535 0
-354 -352 535 0
356 355 479 0
356 -355 -479 0
-356 355 -479 0
-356 -355 479 0
357 355 532 0
357 -355 -532 0
-357 355 -532 0
-357 -355 532 0
359 358 544 0
359 -358 -544 0
-359 358 -544 0
-359 -358 544 0
361 360 373 0
361 -360 -373 0
-361 360 -373 0
-361 -360 373 0
362 360 426 0
362 -360 -426 0
-362 360 -426 0
-362 -360 426 0
363 360 451 0
363 -360 -451 0
-363 360 -451 0
-363 -360 451 0
365 364 426 0
365 -364 -426 0
-365 364 -426 0
-365 -364 426 0
366 364 444 0
366 -364 -444 0
-366 364 -444 0
-366 -364 444 0
367 364 510 0
367 -364 -510 0
-367 364 -510 0
-367 -364 510 0
369 368 531 0
369 -368 -531 0
-369 368 -531 0
-369 -368 531 0
370 368 544 0
370 -368 -544 0
-370 368 -544 0
-370 -368 544 0
372 371 456 0
372 -371 -456 0
-372 371 -456 0
-372 -371 456 0
374 373 400 0
374 -373 -400 0
-374 373 -400 0
-374 -373 400 0
376 375 388 0
376 -375 -388 0
-376 375 -388 0
-376 -375 388 0
377 375 544 0
377 -375 -544 0
-377 375 -544 0
-377 -375 544 0
379 378 470 0
379 -378 -470 0
-379 378 -470 0
-379 -378 470 0
381 380 445 0
381 -380 -445 0
-381 380 -445 0
-381 -380 445 0
382 380 517 0
382 -380 -517 0
-382 380 -517 0
-382 -380 517 0
383 380 535 0
383 -380 -535 0
-383 380 -535 0
-383 -380 535 0
385 384 426 0
385 -384 -426 0
-385 384 -426 0
-385 -384 426 0
386 384 488 0
386 -384 -488 0
-386 384 -488 0
-386 -384 488 0
387 384 544 0
387 -384 -544 0
-387 384 -544 0
-387 -384 544 0
389 388 415 0
389 -388 -415 0
-389 388 -415 0
-389 -388 415 0
391 390 473 0
391 -390 -473 0
-391 390 -473 0
-391 -390 473 0
395 394 414 0
395 -394 -414 0
-395 394 -414 0
-395 -394 414 0
396 394 415 0
396 -394 -415 0
-396 394 -415 0
-396 -394 415 0
397 394 448 0
397 -394 -448 0
-397 394 -448 0
-397 -394 448 0
398 394 494 0
398 -394 -494 0
-398 394 -494 0
-398 -394 494 0
399 394 499 0
399 -394 -499 0
-399 394 -499 0
-399 -394 499 0
402 401 496 0
402 -401 -496 0
-402 401 -496 0
-402 -401 496 0
404 403 470 0
404 -403 -470 0
-404 403 -470 0
-404 -403 470 0
405 403 538 0
405 -403 -538 0
-405 403 -538 0
-405 -403 538 0
406 403 544 0
406 -403 -544 0
-406 403 -544 0
-406 -403 544 0
409 408 428 0
409 -408 -428 0
-409 408 -428 0
-409 -408 428 0
410 408 436 0
410 -408 -436 0
-410 408 -436 0
-410 -408 436 0
411 408 505 0
411 -408 -505 0
-411 408 -505 0
-411 -408 505 0
413 412 515 0
413 -412 -515 0
-413 412 -515 0
-413 -412 515 0
416 415 440 0
416 -415 -440 0
-416 415 -440 0
-416 -415 440 0
417 415 514 0
417 -415 -514 0
-417 415 -514 0
-417 -415 514 0
418 415 542 0
418 -415 -542 0
-418 415 -542 0
-418 -415 542 0
420 419 431 0
420 -419 -431 0
-420 419 -431 0
-420 -419 431 0
421 419 456 0
421 -419 -456 0
-421 419 -456 0
-421 -419 456 0
422 419 502 0
422 -419 -502 0
-422 419 -502 0
-422 -419 502 0
425 424 455 0
425 -424 -455 0
-425 424 -455 0
-425 -424 455 0
427 426 501 0
427 -426 -501 0
-427 426 -501 0
-427 -426 501 0
430 429 471 0
430 -429 -471 0
-430 429 -471 0
-430 -429 471 0
432 431 477 0
432 -431 -477 0
-432 431 -477 0
-432 -431 477 0
434 433 535 0
434 -433 -535 0
-434 433 -535 0
-434 -433 535 0
437 436 471 0
437 -436 -471 0
-437 436 -471 0
-437 -436 471 0
441 440 540 0
441 -440 -540 0
-441 440 -540 0
-441 -440 540 0
443 442 544 0
443 -442 -544 0
-443 442 -544 0
-443 -442 544 0
449 448 506 0
449 -448 -506 0
-449 448 -506 0
-449 -448 506 0
450 448 540 0
450 -448 -540 0
-450 448 -540 0
-450 -448 540 0
452 451 467 0
452 -451 -467 0
-452 451 -467 0
-452 -451 467 0
453 451 512 0
453 -451 -512 0
-453 451 -512 0
-453 -451 512 0
454 451 535 0
454 -451 -535 0
-454 451 -535 0
-454 -451 535 0
457 456 470 0
457 -456 -470 0
-457 456 -470 0
-457 -456 470 0
458 456 507 0
458 -456 -507 0
-458 456 -507 0
-458 -456 507 0
459 456 521 0
459 -456 -521 0
-459 456 -521 0
-459 -456 521 0
461 460 503 0
461 -460 -503 0
-461 460 -503 0
-461 -460 503 0
464 463 484 0
464 -463 -484 0
-464 463 -484 0
-464 -463 484 0
465 463 522 0
465 -463 -522 0
-465 463 -522 0
-465 -463 522 0
466 463 545 0
466 -463 -545 0
-466 463 -545 0
-466 -463 545 0
468 467 499 0
468 -467 -499 0
-468 467 -499 0
-468 -467 499 0
469 467 535 0
469 -467 -535 0
-469 467 -535 0
-469 -467 535 0
472 471 517 0
472 -471 -517 0
-472 471 -517 0
-472 -471 517 0
474 473 547 0
474 -473 -547 0
-474 473 -547 0
-474 -473 547 0
476 475 493 0
476 -475 -493 0
-476 475 -493 0
-476 -475 493 0
478 477 535 0
478 -477 -535 0
-478 477 -535 0
-478 -477 535 0
481 480 515 0
481 -480 -515 0
-481 480 -515 0
-481 -480 515 0
482 480 532 0
482 -480 -532 0
-482 480 -532 0
-482 -480 532 0
483 480 536 0
483 -480 -536 0
-483 480 -536 0
-483 -480 536 0
485 484 531 0
485 -484 -531 0
-485 484 -531 0
-485 -484 531 0
489 488 497 0
489 -488 -497 0
-489 488 -497 0
-489 -488 497 0
492 491 547 0
492 -491 -547 0
-492 491 -547 0
-492 -491 547 0
495 494 535 0
495 -494 -535 0
-495 494 -535 0
-495 -494 535 0
498 497 538 0
498 -497 -538 0
-498 497 -538 0
-498 -497 538 0
500 499 527 0
500 -499 -527 0
-500 499 -527 0
-500 -499 527 0
504 503 513 0
504 -503 -513 0
-504 503 -513 0
-504 -503 513 0
508 507 514 0
508 -507 -514 0
-508 507 -514 0
-508 -507 514 0
509 507 532 0
509 -507 -532 0
-509 507 -532 0
-509 -507 532 0
511 510 540 0
511 -510 -540 0
-511 510 -540 0
-511 -510 540 0
518 517 525 0
518 -517 -525 0
-518 517 -525 0
-518 -517 525 0
520 519 543 0
520 -519 -543 0
-520 519 -543 0
-520 -519 543 0
523 522 532 0
523 -522 -532 0
-523 522 -532 0
-523 -522 532 0
526 525 539 0
526 -525 -539 0
-526 525 -539 0
-526 -525 539 0
529 528 539 0
529 -528 -539 0
-529 528 -539 0
-529 -528 539 0
